;; sequence(s): A17404
;; terms: 1 20736 279841 1336336 4100625 9834496 20151121 37015056 62742241 100000000 151807041 221533456 312900721 429981696 577200625 759333136 981506241 1249198336 1568239201 1944810000
;; small program: loop(x * x, 2, 1 + (loop((2 + y) * x, 2, x) - x))
;; fast program: loop(x * x, 2, 1 + ((2 * ((2 * (x + x)) + x)) + x))
(set-logic UFNIA)
(declare-fun f0 (Int) Int)
(declare-fun g0 () Int)
(declare-fun f1 (Int Int) Int)
(declare-fun g1 () Int)
(declare-fun h1 (Int) Int)
(declare-fun u1 (Int Int) Int)
(declare-fun v1 (Int) Int)
(declare-fun h0 (Int) Int)
(declare-fun u0 (Int Int) Int)
(declare-fun v0 (Int) Int)
(declare-fun small (Int) Int)
(declare-fun f2 (Int) Int)
(declare-fun g2 () Int)
(declare-fun h2 (Int) Int)
(declare-fun u2 (Int Int) Int)
(declare-fun v2 (Int) Int)
(declare-fun fast (Int) Int)
(assert (forall ((x Int)) (= (f0 x) (* x x))))
(assert (= g0 2))
(assert (forall ((x Int) (y Int)) (= (f1 x y) (* (+ 2 y) x))))
(assert (= g1 2))
(assert (forall ((x Int)) (= (h1 x) x)))
(assert (forall ((x Int) (y Int)) (= (u1 x y) (ite (<= x 0) y (f1 (u1 (- x 1) y) x)))))
(assert (forall ((x Int)) (= (v1 x) (u1 g1 (h1 x)))))
(assert (forall ((x Int)) (= (h0 x) (+ 1 (- (v1 x) x)))))
(assert (forall ((x Int) (y Int)) (= (u0 x y) (ite (<= x 0) y (f0 (u0 (- x 1) y))))))
(assert (forall ((x Int)) (= (v0 x) (u0 g0 (h0 x)))))
(assert (forall ((x Int)) (= (small x) (v0 x))))
(assert (forall ((x Int)) (= (f2 x) (* x x))))
(assert (= g2 2))
(assert (forall ((x Int)) (= (h2 x) (+ 1 (+ (* 2 (+ (* 2 (+ x x)) x)) x)))))
(assert (forall ((x Int) (y Int)) (= (u2 x y) (ite (<= x 0) y (f2 (u2 (- x 1) y))))))
(assert (forall ((x Int)) (= (v2 x) (u2 g2 (h2 x)))))
(assert (forall ((x Int)) (= (fast x) (v2 x))))
(assert (exists ((c Int)) (and (>= c 0) (not (= (small c) (fast c))))))
(check-sat)
